&PROJWFC
prefix = 'mos2'
outdir = './tmp'
degauss = 0.001
filpdos = 'mos2.pdos_tot'
filproj = 'mos2.proj.dos'
DeltaE = 0.01
/

