&PROJWFC
prefix = 'ptse2'
outdir = './tmp'
degauss = 0.001
filpdos = 'ptse2.pdos_tot'
filproj = 'ptse2.proj.dos'
DeltaE = 0.01
/

