#==================================================#
#               QuantumEspresso input file         #
#==================================================#

&CONTROL
calculation = 'bands'
verbosity = 'high'
outdir = './tmp'
prefix = 'ptse2'
pseudo_dir = '/opt/project/dorye_projects/brazil_kpm/lda_pp'
tprnfor = .false.
tstress = .false.
/

&SYSTEM
ibrav     = 0 
nat  = 3                  
ntyp = 2              
ecutwfc   = 120
ecutrho   = 1200
occupations = 'smearing'
smearing = 'cold'
degauss = 0.003


lspinorb = .true.
noncolin = .true.


/

&ELECTRONS
conv_thr = 1e-07
mixing_beta = 0.1
mixing_mode = 'plain'
/

ATOMIC_SPECIES
Pt 195.08 Pt.rel.UPF
Se 78.971 Se.rel.UPF


CELL_PARAMETERS angstrom
3.727000000 0.000000000 0.000000000
-1.863500000 3.227676680 0.000000000
0.000000000 0.000000000 30.000000000

ATOMIC_POSITIONS crystal
Pt 0.000000000 0.000000000 0.169400000
Se 0.333333000 0.666667000 0.212597000
Se 0.666667000 0.333333000 0.126203000


K_POINTS crystal_b
         4
0.000 0.000 0.000 20 !Γ
0.500 0.000 0.000 20 !M
0.333 0.333 0.000 20 !K
0.000 0.000 0.000  0 !Γ

